NAME:  test1
TYPE: AGTSP
COMMENT: gtsp tours
DIMENSION:  41
GTSP_SETS: 11
EDGE_WEIGHT_TYPE: EXPLICIT
EDGE_WEIGHT_FORMAT: FULL_MATRIX 
EDGE_WEIGHT_SECTION
999999	0	999999	999999	10556	10556	10556	10548	10563	10563	999999	999999	10543	10543	10543	10535	10562	10562	999999	999999	10544	10544	10544	10536	10547	10547	10547	10539	10566	10566	999999	999999	10558	10558	10558	10550	10585	10585	999999	999999	0
999999	999999	0	999999	10556	10556	10556	999999	10563	10563	10563	999999	10543	10543	10543	999999	10562	10562	10562	999999	10544	10544	10544	999999	10547	10547	10547	999999	10566	10566	10566	999999	10558	10558	10558	999999	10585	10585	10585	999999	0
999999	999999	999999	0	10556	10556	10556	10556	10563	10563	10563	10563	10543	10543	10543	10543	10562	10562	10562	10562	10544	10544	10544	10544	10547	10547	10547	10547	10566	10566	10566	10566	10558	10558	10558	10558	10585	10585	10585	10585	0
0	999999	999999	999999	10556	10556	10548	999999	10563	10563	10563	10555	10543	10543	10535	999999	10562	10562	10562	10554	10544	10544	10536	999999	10547	10547	10539	999999	10566	10566	10566	10558	10558	10558	10550	999999	10585	999999	999999	999999	0
10556	10556	10556	10548	999999	0	999999	999999	10530	10530	10522	999999	10538	10538	10530	999999	10543	10543	10543	10535	10559	10559	10559	10551	10541	10541	10541	10533	10545	10545	10545	10537	10559	10559	10559	10551	10557	10557	10557	10549	0
10556	10556	10556	999999	999999	999999	0	999999	10530	10530	10530	10522	10538	10538	10538	10530	10543	10543	10543	999999	10559	10559	10559	999999	10541	10541	10541	999999	10545	10545	10545	999999	10559	10559	10559	999999	10557	10557	10557	999999	0
10556	10556	10556	10556	999999	999999	999999	0	10530	10530	10530	10530	10538	10538	10538	10538	10543	10543	10543	10543	10559	10559	10559	10559	10541	10541	10541	10541	10545	10545	10545	10545	10559	10559	10559	10559	10557	10557	10557	10557	0
10556	10556	10548	999999	0	999999	999999	999999	10530	10522	999999	999999	10538	10530	999999	999999	10543	10543	10535	999999	10559	10559	10551	999999	10541	10541	10533	999999	10545	10545	10537	999999	10559	10559	10551	999999	10557	10557	10549	999999	0
10563	10563	999999	999999	10530	10530	10522	999999	999999	0	999999	999999	10548	10548	10548	10540	10535	10535	10527	999999	10559	10559	10559	10551	10540	10540	10532	999999	10536	10536	10528	999999	10554	10554	10554	10546	10546	10546	10546	10538	0
10563	10563	10563	999999	10530	10530	10530	10522	999999	999999	0	999999	10548	10548	10548	999999	10535	10535	10535	10527	10559	10559	10559	999999	10540	10540	10540	10532	10536	10536	10536	10528	10554	10554	10554	999999	10546	10546	10546	999999	0
10563	10563	10563	10563	10530	10530	10530	10530	999999	999999	999999	0	10548	10548	10548	10548	10535	10535	10535	10535	10559	10559	10559	10559	10540	10540	10540	10540	10536	10536	10536	10536	10554	10554	10554	10554	10546	10546	10546	10546	0
10563	10563	10563	10555	10530	10522	999999	999999	0	999999	999999	999999	10548	10548	10540	999999	10535	10527	999999	999999	10559	10559	10551	999999	10540	10532	999999	999999	10536	10528	999999	999999	10554	10554	10546	999999	10546	10546	10538	999999	0
10543	10543	10543	10535	10538	10538	10530	999999	10548	10548	10548	10540	999999	0	999999	999999	10556	10556	10556	10548	10557	10557	10557	10549	10545	10545	10545	10537	10559	10559	10559	10551	10564	10564	999999	999999	10574	10574	999999	999999	0
10543	10543	10543	999999	10538	10538	10538	10530	10548	10548	10548	999999	999999	999999	0	999999	10556	10556	10556	999999	10557	10557	10557	999999	10545	10545	10545	999999	10559	10559	10559	999999	10564	10564	10564	999999	10574	10574	10574	999999	0
10543	10543	10543	10543	10538	10538	10538	10538	10548	10548	10548	10548	999999	999999	999999	0	10556	10556	10556	10556	10557	10557	10557	10557	10545	10545	10545	10545	10559	10559	10559	10559	10564	10564	10564	10564	10574	10574	10574	10574	0
10543	10543	10535	999999	10538	10530	999999	999999	10548	10548	10540	999999	0	999999	999999	999999	10556	10556	10548	999999	10557	10557	10549	999999	10545	10545	10537	999999	10559	10559	10551	999999	10564	10564	10564	10556	10574	10574	10574	10566	0
10562	10562	999999	999999	10543	10543	10543	10535	10535	10535	10527	999999	10556	10556	10556	10548	999999	0	999999	999999	10549	10549	10549	10541	10534	10534	10526	999999	10523	10523	10515	999999	10539	10539	10531	999999	10542	10542	10542	10534	0
10562	10562	10562	999999	10543	10543	10543	999999	10535	10535	10535	10527	10556	10556	10556	999999	999999	999999	0	999999	10549	10549	10549	999999	10534	10534	10534	10526	10523	10523	10523	10515	10539	10539	10539	10531	10542	10542	10542	999999	0
10562	10562	10562	10562	10543	10543	10543	10543	10535	10535	10535	10535	10556	10556	10556	10556	999999	999999	999999	0	10549	10549	10549	10549	10534	10534	10534	10534	10523	10523	10523	10523	10539	10539	10539	10539	10542	10542	10542	10542	0
10562	10562	10562	10554	10543	10543	10535	999999	10535	10527	999999	999999	10556	10556	10548	999999	0	999999	999999	999999	10549	10549	10541	999999	10534	10526	999999	999999	10523	10515	999999	999999	10539	10531	999999	999999	10542	10542	10534	999999	0
10544	10544	10544	10536	10559	10559	10559	10551	10559	10559	10559	10551	10557	10557	10557	10549	10549	10549	10549	10541	999999	0	999999	999999	10538	10538	10530	999999	10552	10552	10552	10544	10535	10535	10527	999999	10571	10571	999999	999999	0
10544	10544	10544	999999	10559	10559	10559	999999	10559	10559	10559	999999	10557	10557	10557	999999	10549	10549	10549	999999	999999	999999	0	999999	10538	10538	10538	10530	10552	10552	10552	999999	10535	10535	10535	10527	10571	10571	10571	999999	0
10544	10544	10544	10544	10559	10559	10559	10559	10559	10559	10559	10559	10557	10557	10557	10557	10549	10549	10549	10549	999999	999999	999999	0	10538	10538	10538	10538	10552	10552	10552	10552	10535	10535	10535	10535	10571	10571	10571	10571	0
10544	10544	10536	999999	10559	10559	10551	999999	10559	10559	10551	999999	10557	10557	10549	999999	10549	10549	10541	999999	0	999999	999999	999999	10538	10530	999999	999999	10552	10552	10544	999999	10535	10527	999999	999999	10571	10571	10571	10563	0
10547	10547	10547	10539	10541	10541	10541	10533	10540	10540	10532	999999	10545	10545	10545	10537	10534	10534	10526	999999	10538	10538	10530	999999	999999	0	999999	999999	10538	10538	10530	999999	10538	10538	10530	999999	10557	10557	10557	10549	0
10547	10547	10547	999999	10541	10541	10541	999999	10540	10540	10540	10532	10545	10545	10545	999999	10534	10534	10534	10526	10538	10538	10538	10530	999999	999999	0	999999	10538	10538	10538	10530	10538	10538	10538	10530	10557	10557	10557	999999	0
10547	10547	10547	10547	10541	10541	10541	10541	10540	10540	10540	10540	10545	10545	10545	10545	10534	10534	10534	10534	10538	10538	10538	10538	999999	999999	999999	0	10538	10538	10538	10538	10538	10538	10538	10538	10557	10557	10557	10557	0
10547	10547	10539	999999	10541	10541	10533	999999	10540	10532	999999	999999	10545	10545	10537	999999	10534	10526	999999	999999	10538	10530	999999	999999	0	999999	999999	999999	10538	10530	999999	999999	10538	10530	999999	999999	10557	10557	10549	999999	0
10566	10566	999999	999999	10545	10545	10545	10537	10536	10536	10528	999999	10559	10559	10559	10551	10523	10523	10515	999999	10552	10552	10552	10544	10538	10538	10530	999999	999999	0	999999	999999	10541	10541	10541	10533	10539	10539	10531	999999	0
10566	10566	10566	999999	10545	10545	10545	999999	10536	10536	10536	10528	10559	10559	10559	999999	10523	10523	10523	10515	10552	10552	10552	999999	10538	10538	10538	10530	999999	999999	0	999999	10541	10541	10541	999999	10539	10539	10539	10531	0
10566	10566	10566	10566	10545	10545	10545	10545	10536	10536	10536	10536	10559	10559	10559	10559	10523	10523	10523	10523	10552	10552	10552	10552	10538	10538	10538	10538	999999	999999	999999	0	10541	10541	10541	10541	10539	10539	10539	10539	0
10566	10566	10566	10558	10545	10545	10537	999999	10536	10528	999999	999999	10559	10559	10551	999999	10523	10515	999999	999999	10552	10552	10544	999999	10538	10530	999999	999999	0	999999	999999	999999	10541	10541	10533	999999	10539	10531	999999	999999	0
10558	10558	10558	10550	10559	10559	10559	10551	10554	10554	10554	10546	10564	10564	999999	999999	10539	10539	10531	999999	10535	10535	10527	999999	10538	10538	10530	999999	10541	10541	10541	10533	999999	0	999999	999999	10559	10559	10559	10551	0
10558	10558	10558	999999	10559	10559	10559	999999	10554	10554	10554	999999	10564	10564	10564	999999	10539	10539	10539	10531	10535	10535	10535	10527	10538	10538	10538	10530	10541	10541	10541	999999	999999	999999	0	999999	10559	10559	10559	999999	0
10558	10558	10558	10558	10559	10559	10559	10559	10554	10554	10554	10554	10564	10564	10564	10564	10539	10539	10539	10539	10535	10535	10535	10535	10538	10538	10538	10538	10541	10541	10541	10541	999999	999999	999999	0	10559	10559	10559	10559	0
10558	10558	10550	999999	10559	10559	10551	999999	10554	10554	10546	999999	10564	10564	10564	10556	10539	10531	999999	999999	10535	10527	999999	999999	10538	10530	999999	999999	10541	10541	10533	999999	0	999999	999999	999999	10559	10559	10551	999999	0
10585	10585	999999	999999	10557	10557	10557	10549	10546	10546	10546	10538	10574	10574	999999	999999	10542	10542	10542	10534	10571	10571	999999	999999	10557	10557	10557	10549	10539	10539	10531	999999	10559	10559	10559	10551	999999	0	999999	999999	0
10585	10585	10585	999999	10557	10557	10557	999999	10546	10546	10546	999999	10574	10574	10574	999999	10542	10542	10542	999999	10571	10571	10571	999999	10557	10557	10557	999999	10539	10539	10539	10531	10559	10559	10559	999999	999999	999999	0	999999	0
10585	10585	10585	10585	10557	10557	10557	10557	10546	10546	10546	10546	10574	10574	10574	10574	10542	10542	10542	10542	10571	10571	10571	10571	10557	10557	10557	10557	10539	10539	10539	10539	10559	10559	10559	10559	999999	999999	999999	0	0
10585	999999	999999	999999	10557	10557	10549	999999	10546	10546	10538	999999	10574	10574	10574	10566	10542	10542	10534	999999	10571	10571	10571	10563	10557	10557	10549	999999	10539	10531	999999	999999	10559	10559	10551	999999	0	999999	999999	999999	0
10511	999999	999999	999999	10511	999999	999999	999999	10511	999999	999999	999999	10511	999999	999999	999999	10511	999999	999999	999999	10511	999999	999999	999999	10511	999999	999999	999999	10511	999999	999999	999999	10511	999999	999999	999999	10511	999999	999999	999999	999999
GTSP_SET_SECTION:
1 1 2 3 4 -1
2 5 6 7 8 -1
3 9 10 11 12 -1
4 13 14 15 16 -1
5 17 18 19 20 -1
6 21 22 23 24 -1
7 25 26 27 28 -1
8 29 30 31 32 -1
9 33 34 35 36 -1
10 37 38 39 40 -1
11 41
EOF